NAME: ACTUAL_TOURS/amz2136
TYPE: TOUR
COMMENT: RouteID_e2627cd4-8387-42de-bb45-0706c59ce057
DIMENSION: 123
TOUR_SECTION
4
79
40
92
100
15
102
72
64
96
12
76
26
104
117
30
81
46
122
74
63
91
123
60
59
5
25
29
110
119
103
1
22
83
23
24
120
48
45
99
61
85
6
67
109
101
94
18
105
3
35
20
87
112
114
108
51
75
7
111
47
21
86
49
11
73
58
10
62
42
106
38
90
66
36
33
55
16
41
89
43
2
115
88
31
50
19
118
8
65
82
84
37
44
80
70
32
34
28
57
71
39
17
52
113
98
116
56
53
77
69
13
14
95
93
78
121
27
107
68
97
9
54
-1
EOF
